set NODES := 1 2 3 4 5 6 7 8;

set ARCS := (1,2) (1,3) (2,3) (2,5) (2,4)
(3,4) (3,5) (3,6) (4,5) (4,6) (4,7) 
(5,6) (5,7) (6,7) (6,8) (7,8);

param: ava :=
2 1
6 -1;

param: dis:=
1 2  1
1 3  2
2 3  1
2 4  5
2 5  2
3 4  2
3 5  1
3 6  4
4 5  3
4 6  6
4 7  8
5 6  3
5 7  7
6 7  5
6 8  2
7 8  6;






